C36
1.0
  11.0658474156289817    0.0000000000000000    0.0000000000000007
  -5.5329237078144917    9.5833049763370699    0.0000000000000007
   0.0000000000000000    0.0000000000000000   20.0000098490249698
C
36
direct
   0.7244810908135281    0.8013898131892903    0.0000000000000000 C
   0.2755189091864723    0.1986101868107094    0.0000000000000000 C
   0.9230912776242367    0.7244810908135280    0.0000000000000000 C
   0.0769087223757621    0.2755189091864707    0.0000000000000000 C
   0.1986101868107040    0.9230912776242263    0.0000000000000000 C
   0.8013898131892792    0.0769087223757624    0.0000000000000000 C
   0.1986101868107084    0.2755189091864707    0.0000000000000000 C
   0.8013898131892889    0.7244810908135280    0.0000000000000000 C
   0.2755189091864709    0.0769087223757624    0.0000000000000000 C
   0.7244810908135220    0.9230912776242263    0.0000000000000000 C
   0.0769087223757619    0.8013898131892903    0.0000000000000000 C
   0.9230912776242274    0.1986101868107094    0.0000000000000000 C
   0.5918526808292722    0.6696513043673870    0.0000000000000000 C
   0.4081473191707269    0.3303486956326147    0.0000000000000000 C
   0.9222013764618854    0.5918526808292721    0.0000000000000000 C
   0.0777986235381126    0.4081473191707272    0.0000000000000000 C
   0.3303486956326087    0.9222013764618745    0.0000000000000000 C
   0.6696513043673824    0.0777986235381118    0.0000000000000000 C
   0.3303486956326143    0.4081473191707272    0.0000000000000000 C
   0.6696513043673803    0.5918526808292721    0.0000000000000000 C
   0.4081473191707231    0.0777986235381118    0.0000000000000000 C
   0.5918526808292655    0.9222013764618745    0.0000000000000000 C
   0.0777986235381144    0.6696513043673870    0.0000000000000000 C
   0.9222013764618752    0.3303486956326147    0.0000000000000000 C
   0.4637935699640447    0.7975316082796500    0.0000000000000000 C
   0.5362064300359534    0.2024683917203506    0.0000000000000000 C
   0.6662619616843913    0.4637935699640397    0.0000000000000000 C
   0.3337380383156036    0.5362064300359535    0.0000000000000000 C
   0.2024683917203514    0.6662619616843974    0.0000000000000000 C
   0.7975316082796474    0.3337380383156049    0.0000000000000000 C
   0.2024683917203495    0.5362064300359535    0.0000000000000000 C
   0.7975316082796456    0.4637935699640397    0.0000000000000000 C
   0.5362064300359506    0.3337380383156049    0.0000000000000000 C
   0.4637935699640457    0.6662619616843974    0.0000000000000000 C
   0.3337380383156049    0.7975316082796500    0.0000000000000000 C
   0.6662619616843958    0.2024683917203506    0.0000000000000000 C
